
Gurobi 8.0.1 (win64, Python) logging started 08/21/18 16:52:40

Academic license - for non-commercial use only
Optimize a model with 27 rows, 63 columns and 189 nonzeros
Variable types: 0 continuous, 63 integer (63 binary)
Coefficient statistics:
  Matrix range     [1e+00, 1e+00]
  Objective range  [1e+05, 3e+05]
  Bounds range     [1e+00, 1e+00]
  RHS range        [1e+00, 9e+02]
Found heuristic solution: objective 1.502741e+07
Presolve removed 27 rows and 63 columns
Presolve time: 0.02s
Presolve: All rows and columns removed

Explored 0 nodes (0 simplex iterations) in 0.02 seconds
Thread count was 1 (of 8 available processors)

Solution count 2: 1.48759e+07 1.50274e+07 

Optimal solution found (tolerance 1.00e-04)
Best objective 1.487594541900e+07, best bound 1.487594541900e+07, gap 0.0000%

Gurobi 8.0.1 (win64, Python) logging started 08/21/18 17:10:31

Academic license - for non-commercial use only

Gurobi 8.0.1 (win64, Python) logging started 08/21/18 17:10:46

Academic license - for non-commercial use only
Optimize a model with 30 rows, 63 columns and 219 nonzeros
Variable types: 0 continuous, 63 integer (63 binary)
Coefficient statistics:
  Matrix range     [3e-01, 1e+00]
  Objective range  [3e+05, 6e+05]
  Bounds range     [1e+00, 1e+00]
  RHS range        [1e+00, 9e+02]
Found heuristic solution: objective 2.716756e+07
Presolve removed 30 rows and 63 columns
Presolve time: 0.02s
Presolve: All rows and columns removed

Explored 0 nodes (0 simplex iterations) in 0.02 seconds
Thread count was 1 (of 8 available processors)

Solution count 2: 2.65639e+07 2.71676e+07 

Optimal solution found (tolerance 1.00e-04)
Best objective 2.656394086800e+07, best bound 2.656394086800e+07, gap 0.0000%

Gurobi 8.0.1 (win64, Python) logging started 08/21/18 17:10:55

Academic license - for non-commercial use only
Optimize a model with 30 rows, 63 columns and 222 nonzeros
Variable types: 0 continuous, 63 integer (63 binary)
Coefficient statistics:
  Matrix range     [2e-01, 1e+00]
  Objective range  [1e+05, 4e+05]
  Bounds range     [1e+00, 1e+00]
  RHS range        [1e+00, 1e+03]
Found heuristic solution: objective 1.818197e+07
Presolve removed 30 rows and 63 columns
Presolve time: 0.00s
Presolve: All rows and columns removed

Explored 0 nodes (0 simplex iterations) in 0.00 seconds
Thread count was 1 (of 8 available processors)

Solution count 2: 1.75794e+07 1.8182e+07 

Optimal solution found (tolerance 1.00e-04)
Best objective 1.757942889000e+07, best bound 1.757942889000e+07, gap 0.0000%

Gurobi 8.0.1 (win64, Python) logging started 08/21/18 17:10:57

Academic license - for non-commercial use only
Optimize a model with 30 rows, 63 columns and 216 nonzeros
Variable types: 0 continuous, 63 integer (63 binary)
Coefficient statistics:
  Matrix range     [2e-01, 1e+00]
  Objective range  [3e+05, 5e+05]
  Bounds range     [1e+00, 1e+00]
  RHS range        [1e+00, 1e+03]
Found heuristic solution: objective 2.101694e+07
Presolve removed 30 rows and 63 columns
Presolve time: 0.02s
Presolve: All rows and columns removed

Explored 0 nodes (0 simplex iterations) in 0.02 seconds
Thread count was 1 (of 8 available processors)

Solution count 2: 2.07172e+07 2.10169e+07 

Optimal solution found (tolerance 1.00e-04)
Best objective 2.071717122000e+07, best bound 2.071717122000e+07, gap 0.0000%

Gurobi 8.0.1 (win64, Python) logging started 08/21/18 17:13:39

Academic license - for non-commercial use only

Gurobi 8.0.1 (win64, Python) logging started 08/21/18 17:14:05

Academic license - for non-commercial use only

Gurobi 8.0.1 (win64, Python) logging started 08/21/18 17:14:34

Academic license - for non-commercial use only
Optimize a model with 30 rows, 63 columns and 219 nonzeros
Variable types: 0 continuous, 63 integer (63 binary)
Coefficient statistics:
  Matrix range     [2e-01, 1e+00]
  Objective range  [4e+05, 5e+05]
  Bounds range     [1e+00, 1e+00]
  RHS range        [1e+00, 5e+02]
Found heuristic solution: objective 2.701248e+07
Presolve removed 30 rows and 63 columns
Presolve time: 0.00s
Presolve: All rows and columns removed

Explored 0 nodes (0 simplex iterations) in 0.00 seconds
Thread count was 1 (of 8 available processors)

Solution count 2: 2.70122e+07 2.70125e+07 

Optimal solution found (tolerance 1.00e-04)
Best objective 2.701220811600e+07, best bound 2.701220811600e+07, gap 0.0000%
